n: 20
c: 125995                           

14981	14976
13935	13930
14462	14457
14860	14855
13563	13558
10703	10698
12230	12225
12980	12975
12434	12429
10322	10317
12275	12270
12628	12623
12586	12581
10799	10794
10101	10096
11285	11280
13120	13115
11355	11350
10665	10660
12707	12702
